solution status: optimal solution found
objective value:                 -3.33066907387547e-16
X#1#2#1                                             1 	(obj:0)
X#1#3#17                                            1 	(obj:0)
X#1#4#6                             0.999999999999997 	(obj:0)
X#1#5#13                            0.999999999999998 	(obj:0)
X#1#6#12                                            1 	(obj:0)
X#1#7#16                                            1 	(obj:0)
X#1#8#3                             0.999999999999997 	(obj:0)
X#1#9#10                                            1 	(obj:0)
X#1#10#8                                            1 	(obj:0)
X#2#1#18                            0.999999999999997 	(obj:0)
X#2#3#2                             0.999999999999999 	(obj:0)
X#2#4#3                                             1 	(obj:0)
X#2#5#9                                             1 	(obj:0)
X#2#6#5                             0.999999999999999 	(obj:0)
X#2#7#12                                            1 	(obj:0)
X#2#8#7                                             1 	(obj:0)
X#2#9#14                            0.999999999999996 	(obj:0)
X#2#10#16                           0.999999999999999 	(obj:0)
X#3#1#7                             0.999999999999999 	(obj:0)
X#3#2#15                            0.999999999999997 	(obj:0)
X#3#4#9                                             1 	(obj:0)
X#3#5#4                                             1 	(obj:0)
X#3#6#14                                            1 	(obj:0)
X#3#7#1                                             1 	(obj:0)
X#3#8#18                                            1 	(obj:0)
X#3#9#12                                            1 	(obj:0)
X#3#10#5                                            1 	(obj:0)
X#4#1#14                            0.999999999999999 	(obj:0)
X#4#2#10                                            1 	(obj:0)
X#4#3#16                            0.999999999999997 	(obj:0)
X#4#5#2                                             1 	(obj:0)
X#4#6#7                             0.999999999999998 	(obj:0)
X#4#7#17                             1.00000000000001 	(obj:0)
X#4#8#5                             0.999999999999994 	(obj:0)
X#4#9#4                                             1 	(obj:0)
X#4#10#11                                           1 	(obj:0)
X#5#1#5                             0.999999999999996 	(obj:0)
X#5#2#17                                            1 	(obj:0)
X#5#3#10                                            1 	(obj:0)
X#5#4#12                                            1 	(obj:0)
X#5#6#3                                             1 	(obj:0)
X#5#7#7                                             1 	(obj:0)
X#5#8#16                                            1 	(obj:0)
X#5#9#1                                             1 	(obj:0)
X#5#10#14                           0.999999999999998 	(obj:0)
X#6#1#4                                             1 	(obj:0)
X#6#2#11                                            1 	(obj:0)
X#6#3#8                                             1 	(obj:0)
X#6#4#18                                            1 	(obj:0)
X#6#5#15                                            1 	(obj:0)
X#6#7#13                                            1 	(obj:0)
X#6#8#1                                             1 	(obj:0)
X#6#9#6                                             1 	(obj:0)
X#6#10#9                                            1 	(obj:0)
X#7#1#9                                             1 	(obj:0)
X#7#2#6                             0.999999999999999 	(obj:0)
X#7#3#11                                            1 	(obj:0)
X#7#4#8                                             1 	(obj:0)
X#7#5#18                             1.00000000000001 	(obj:0)
X#7#6#2                                             1 	(obj:0)
X#7#8#14                            0.999999999999996 	(obj:0)
X#7#9#15                             1.00000000000001 	(obj:0)
X#7#10#3                                            1 	(obj:0)
X#8#1#11                            0.999999999999999 	(obj:0)
X#8#2#13                                            1 	(obj:0)
X#8#3#6                             0.999999999999995 	(obj:0)
X#8#4#15                                            1 	(obj:0)
X#8#5#8                             0.999999999999999 	(obj:0)
X#8#6#10                                            1 	(obj:0)
X#8#7#4                                             1 	(obj:0)
X#8#9#17                                            1 	(obj:0)
X#8#10#2                                            1 	(obj:0)
X#9#1#2                                             1 	(obj:0)
X#9#2#8                                             1 	(obj:0)
X#9#3#3                                             1 	(obj:0)
X#9#4#13                                            1 	(obj:0)
X#9#5#11                                            1 	(obj:0)
X#9#6#16                                            1 	(obj:0)
X#9#7#5                             0.999999999999998 	(obj:0)
X#9#8#9                                             1 	(obj:0)
X#9#10#18                           0.999999999999991 	(obj:0)
X#10#1#15                           0.999999999999998 	(obj:0)
X#10#2#4                                            1 	(obj:0)
X#10#3#13                                           1 	(obj:0)
X#10#4#1                                            1 	(obj:0)
X#10#5#6                            0.999999999999999 	(obj:0)
X#10#6#17                           0.999999999999999 	(obj:0)
X#10#7#10                                           1 	(obj:0)
X#10#8#12                                           1 	(obj:0)
X#10#9#7                                            1 	(obj:0)
Y#1#1                                               1 	(obj:0)
Y#1#3                                               1 	(obj:0)
Y#1#13                              0.999999999999997 	(obj:0)
Y#1#17                                              1 	(obj:0)
Y#2#3                                               1 	(obj:0)
Y#2#5                               0.999999999999999 	(obj:0)
Y#2#7                                               1 	(obj:0)
Y#2#9                                               1 	(obj:0)
Y#3#1                                               1 	(obj:0)
Y#3#5                               0.999999999999996 	(obj:0)
Y#3#7                                               1 	(obj:0)
Y#3#9                                               1 	(obj:0)
Y#3#15                              0.999999999999997 	(obj:0)
Y#4#5                               0.999999999999999 	(obj:0)
Y#4#7                                               1 	(obj:0)
Y#4#11                                              1 	(obj:0)
Y#4#17                               1.00000000000001 	(obj:0)
Y#5#1                                               1 	(obj:0)
Y#5#3                                               1 	(obj:0)
Y#5#5                               0.999999999999998 	(obj:0)
Y#5#7                               0.999999999999999 	(obj:0)
Y#5#17                                              1 	(obj:0)
Y#6#1                                               1 	(obj:0)
Y#6#9                                               1 	(obj:0)
Y#6#11                                              1 	(obj:0)
Y#6#13                              0.999999999999992 	(obj:0)
Y#6#15                               1.00000000000001 	(obj:0)
Y#7#3                                               1 	(obj:0)
Y#7#9                                               1 	(obj:0)
Y#7#11                                              1 	(obj:0)
Y#7#15                                              1 	(obj:0)
Y#8#11                                              1 	(obj:0)
Y#8#13                                              1 	(obj:0)
Y#8#15                                              1 	(obj:0)
Y#8#17                              0.999999999999997 	(obj:0)
Y#9#3                                               1 	(obj:0)
Y#9#5                                               1 	(obj:0)
Y#9#9                                               1 	(obj:0)
Y#9#11                                              1 	(obj:0)
Y#9#13                              0.999999999999999 	(obj:0)
Y#10#1                                              1 	(obj:0)
Y#10#7                                              1 	(obj:0)
Y#10#13                                             1 	(obj:0)
Y#10#15                                             1 	(obj:0)
Y#10#17                             0.999999999999985 	(obj:0)
